min: 60 x1_1 + 31 x1_2 + 37 x1_3 + 16 x1_4 + 38 x1_5 + 98 x1_6 + 60 x2_1 + 99 x2_2 + 52 x2_3 + 52 x2_4 + 55 x2_5 + 84 x2_6 + 22 x3_1 + 33 x3_2 + 26 x3_3 + 77 x3_4 + 7 x3_5 + 2 x3_6 + 28 x4_1 + 45 x4_2 + 96 x4_3 + 40 x4_4 + 25 x4_5 + 81 x4_6 + 37 x5_1 + 73 x5_2 + 3 x5_3 + 79 x5_4 + 70 x5_5 + 14 x5_6 + 71 x6_1 + 29 x6_2 + 33 x6_3 + 96 x6_4 + 11 x6_5 + 26 x6_6;

st
x1_1 + x1_2 + x1_3 + x1_4 + x1_5 + x1_6 <= 1404;
x2_1 + x2_2 + x2_3 + x2_4 + x2_5 + x2_6 <= 3207;
x3_1 + x3_2 + x3_3 + x3_4 + x3_5 + x3_6 <= 3677;
x4_1 + x4_2 + x4_3 + x4_4 + x4_5 + x4_6 <= 3043;
x5_1 + x5_2 + x5_3 + x5_4 + x5_5 + x5_6 <= 3178;
x6_1 + x6_2 + x6_3 + x6_4 + x6_5 + x6_6 <= 1578;

x1_1 + x2_1 + x3_1 + x4_1 + x5_1 + x6_1 >= 3890;
x1_2 + x2_2 + x3_2 + x4_2 + x5_2 + x6_2 >= 3157;
x1_3 + x2_3 + x3_3 + x4_3 + x5_3 + x6_3 >= 2793;
x1_4 + x2_4 + x3_4 + x4_4 + x5_4 + x6_4 >= 4229;
x1_5 + x2_5 + x3_5 + x4_5 + x5_5 + x6_5 >= 3698;
x1_6 + x2_6 + x3_6 + x4_6 + x5_6 + x6_6 >= 1154;

x1_1 >= 0;
x1_2 >= 0;
x1_3 >= 0;
x1_4 >= 0;
x1_5 >= 0;
x1_6 >= 0;
x2_1 >= 0;
x2_2 >= 0;
x2_3 >= 0;
x2_4 >= 0;
x2_5 >= 0;
x2_6 >= 0;
x3_1 >= 0;
x3_2 >= 0;
x3_3 >= 0;
x3_4 >= 0;
x3_5 >= 0;
x3_6 >= 0;
x4_1 >= 0;
x4_2 >= 0;
x4_3 >= 0;
x4_4 >= 0;
x4_5 >= 0;
x4_6 >= 0;
x5_1 >= 0;
x5_2 >= 0;
x5_3 >= 0;
x5_4 >= 0;
x5_5 >= 0;
x5_6 >= 0;
x6_1 >= 0;
x6_2 >= 0;
x6_3 >= 0;
x6_4 >= 0;
x6_5 >= 0;
x6_6 >= 0;